File,Optimum
knapPI_1_500_1000_1,28857.0
knapPI_2_500_1000_1,4566.0
knapPI_3_500_1000_1,7117.0
f1_l-d_kp_10_269,295.0
f2_l-d_kp_20_878,1024.0
f3_l-d_kp_4_20,35.0
f4_l-d_kp_4_11,23.0
f5_l-d_kp_15_375,481.0694
f6_l-d_kp_10_60,52.0
f7_l-d_kp_7_50,107.0
f8_l-d_kp_23_10000,9767.0
f9_l-d_kp_5_80,130.0
f10_l-d_kp_20_879,1025.0
